p wcnf 176 207 208 
1 -101 -30 0 
1 111 64 0 
1 48 105 0 
1 -43 37 0 
1 1 -63 0 
1 33 -95 0 
1 119 -88 0 
1 152 -56 0 
1 -89 81 0 
1 172 6 0 
1 -61 -176 0 
1 -90 -67 0 
1 131 23 0 
1 159 -118 0 
1 -75 -145 0 
1 105 89 0 
1 84 -104 0 
1 -157 -64 0 
1 -151 82 0 
1 -156 6 0 
1 -35 -91 0 
1 120 14 0 
1 162 -25 0 
1 121 79 0 
1 -161 22 0 
1 138 143 0 
1 -90 -20 0 
1 77 53 0 
1 -34 126 0 
1 -78 -32 0 
1 -155 -47 0 
1 -164 -74 0 
1 113 112 0 
1 58 125 0 
1 -154 -106 0 
1 164 142 0 
1 18 -62 0 
1 153 -82 0 
1 144 48 0 
1 -145 -101 0 
1 -166 -57 0 
1 161 -54 0 
1 -45 156 0 
1 37 -134 0 
1 -155 -171 0 
1 -106 -154 0 
1 100 -33 0 
1 -119 -101 0 
1 -121 -34 0 
1 -65 -88 0 
1 110 -18 0 
1 -128 163 0 
1 78 17 0 
1 61 148 0 
1 -37 -60 0 
1 17 16 0 
1 -33 -110 0 
1 75 128 0 
1 -95 85 0 
1 14 -37 0 
1 40 78 0 
1 -17 122 0 
1 57 95 0 
1 118 -86 0 
1 30 87 0 
1 27 -64 0 
1 -143 70 0 
1 -141 98 0 
1 127 -39 0 
1 155 61 0 
1 144 -127 0 
1 -109 99 0 
1 -106 11 0 
1 -73 -15 0 
1 41 85 0 
1 -37 -9 0 
1 -58 -5 0 
1 129 69 0 
1 -158 86 0 
1 21 -101 0 
1 31 1 0 
1 50 123 0 
1 -132 -94 0 
1 8 58 0 
1 37 -134 0 
1 65 33 0 
1 176 29 0 
1 43 159 0 
1 -46 -52 0 
1 -145 112 0 
1 -135 -98 0 
1 -150 148 0 
1 -42 37 0 
1 -114 -97 0 
1 -2 163 0 
1 98 43 0 
1 94 -109 0 
1 -67 134 0 
1 98 45 0 
1 -40 -72 0 
1 23 -6 0 
1 -47 102 0 
1 25 9 0 
1 171 59 0 
1 -112 -47 0 
1 -73 23 0 
1 106 -6 0 
1 129 -160 0 
1 -161 5 0 
1 158 47 0 
1 -87 76 0 
1 45 -90 0 
1 -72 150 0 
1 66 -121 0 
1 110 -30 0 
1 92 -39 0 
1 -168 93 0 
1 84 128 0 
1 -60 -83 0 
1 -89 52 0 
1 102 172 0 
1 171 174 0 
1 120 -91 0 
1 14 -24 0 
1 -145 -80 0 
1 38 -91 0 
1 106 -65 0 
1 33 -154 0 
1 -162 -44 0 
1 153 18 0 
1 -24 16 0 
1 113 78 0 
1 -82 -7 0 
1 -30 -19 0 
1 140 -4 0 
1 94 -99 0 
1 -24 86 0 
1 -38 73 0 
1 -55 -135 0 
1 -167 -59 0 
1 -130 10 0 
1 -140 168 0 
1 95 -108 0 
1 70 127 0 
1 108 25 0 
1 48 94 0 
1 67 172 0 
1 20 -1 0 
1 54 35 0 
1 -134 -44 0 
1 133 -14 0 
1 104 141 0 
1 102 38 0 
1 -65 150 0 
1 -112 -136 0 
1 -73 -101 0 
1 -112 1 0 
1 44 148 0 
1 157 -14 0 
1 -3 167 0 
1 -48 72 0 
1 -170 42 0 
1 163 -67 0 
1 -89 94 0 
1 62 -27 0 
1 -53 61 0 
1 74 152 0 
1 17 106 0 
1 -130 -38 0 
1 -176 102 0 
1 -113 -1 0 
1 -47 -6 0 
1 -55 -176 0 
1 -78 -154 0 
1 -170 118 0 
1 -12 -19 0 
1 -69 81 0 
1 7 -169 0 
1 -82 159 0 
1 -29 -124 0 
1 -154 -54 0 
1 -37 92 0 
1 -7 -111 0 
1 -97 153 0 
1 -9 -27 0 
1 18 69 0 
1 -125 173 0 
1 25 -32 0 
1 -129 -95 0 
1 153 87 0 
1 168 37 0 
1 147 -98 0 
1 -87 -53 0 
1 -91 -84 0 
1 -126 -149 0 
1 4 59 0 
1 72 55 0 
1 -40 174 0 
1 67 58 0 
1 140 5 0 
1 170 23 0 
1 113 147 0 
1 -112 -161 0 
1 -162 82 0 
1 -127 116 0 
1 169 -29 0 
1 -94 92 0 
